experiments/loan_acquisition/experiments_appendix/Instance2/maxsat_encoding/cegqs_0.wcnf
c This is a CNF SAT formula in the DIMACS CNF format,
c produced with the bc2cnf translator by Tommi Junttila;
c see http://users.ics.aalto.fi/tjunttil/circuits/index.html
c phi_Gamma <-> 1
c phi_T_transitions <-> 1
c phi_T_transitions_consistency <-> 1
c phi_T <-> 1
c phi_sim_leaves <-> 1
c phi_sim_transition <-> 1
c phi_sim <-> 1
c FORMULA <-> 1
c pi_0_9 <-> 2
c pi_0_0 <-> 15
c pi_0_8 <-> 15
c pi_0_2 <-> 23
c pi_0_7 <-> 23
c pi_0_6 <-> 26
c pi_0_5 <-> 37
c pi_0_4 <-> 44
c pi_0_3 <-> 45
c pi_0_1 <-> 52
c alp_approved_1_0 <-> 54
c alp_approved_0_1 <-> 54
c alp_approved_1_2 <-> 54
c alp_approved_0_3 <-> 54
c alp_approved_1_4 <-> 54
c alp_approved_0_5 <-> 54
c alp_approved_0_6 <-> 54
c alp_approved_1_7 <-> 54
c alp_approved_1_8 <-> 54
c alp_approved_1_9 <-> 54
c alp_approved_1_1 <-> 55
c alp_approved_1_3 <-> 55
c alp_approved_1_5 <-> 55
c alp_approved_1_6 <-> 55
c approved_P100 <-> 55
c alp_approved_0_0 <-> 56
c alp_approved_0_2 <-> 56
c alp_approved_0_4 <-> 56
c alp_approved_0_7 <-> 56
c alp_approved_0_8 <-> 56
c alp_approved_0_9 <-> 56
c approved_P0 <-> 56
c tau_0_3_approved_1 <-> 83
c tau_0_3_approved_0 <-> 84
c tau_0_2_approved_1 <-> 85
c tau_0_2_approved_0 <-> 86
c tau_0_1_approved_1 <-> 87
c tau_0_1_approved_0 <-> 88
c tau_0_0_approved_1 <-> 89
c tau_0_0_approved_0 <-> 90
c phi_T_feature_det <-> 91
c lam_0_credit_score <-> 104
c lam_0_dependents <-> 106
c lam_0_monthly_income <-> 108
c lam_0_age <-> 109
p wcnf 109 307 11  
11 1 0
11 2 -3 0
11 2 -6 0
11 -2 6 3 0
1 2 0
11 -3 4 0
11 -3 104 0
11 3 -104 -4 0
11 -4 -85 0
11 -4 5 0
11 4 -5 85 0
11 5 86 0
11 5 -56 0
11 -5 56 -86 0
11 6 -7 0
11 6 -8 0
11 -6 8 7 0
11 -7 10 0
11 -7 106 0
11 7 -106 -10 0
11 8 -9 0
11 8 -12 0
11 -8 12 9 0
11 -9 10 0
11 -9 108 0
11 9 -108 -10 0
11 -10 -89 0
11 -10 11 0
11 10 -11 89 0
11 11 90 0
11 11 -56 0
11 -11 56 -90 0
11 -12 13 0
11 -12 109 0
11 12 -109 -13 0
11 -13 -87 0
11 -13 14 0
11 13 -14 87 0
11 14 88 0
11 14 -56 0
11 -14 56 -88 0
11 15 -16 0
11 15 -17 0
11 -15 17 16 0
1 15 0
11 -16 13 0
11 -16 104 0
11 16 -104 -13 0
11 17 -18 0
11 17 -19 0
11 -17 19 18 0
11 -18 13 0
11 -18 106 0
11 18 -106 -13 0
11 19 -9 0
11 19 -20 0
11 -19 20 9 0
11 -20 21 0
11 -20 109 0
11 20 -109 -21 0
11 -21 -83 0
11 -21 22 0
11 21 -22 83 0
11 22 84 0
11 22 -56 0
11 -22 56 -84 0
11 23 -24 0
11 23 -25 0
11 -23 25 24 0
1 23 0
11 -24 10 0
11 -24 104 0
11 24 -104 -10 0
11 25 -8 0
11 25 -18 0
11 -25 18 8 0
11 26 -27 0
11 26 -28 0
11 -26 28 27 0
1 26 0
11 -27 35 0
11 -27 104 0
11 27 -104 -35 0
11 28 -29 0
11 28 -30 0
11 -28 30 29 0
11 -29 32 0
11 -29 106 0
11 29 -106 -32 0
11 30 -31 0
11 30 -34 0
11 -30 34 31 0
11 -31 32 0
11 -31 108 0
11 31 -108 -32 0
11 -32 -88 0
11 -32 33 0
11 32 -33 88 0
11 33 87 0
11 33 -55 0
11 -33 55 -87 0
11 -34 35 0
11 -34 109 0
11 34 -109 -35 0
11 -35 -86 0
11 -35 36 0
11 35 -36 86 0
11 36 85 0
11 36 -55 0
11 -36 55 -85 0
11 37 -38 0
11 37 -41 0
11 -37 41 38 0
1 37 0
11 -38 39 0
11 -38 104 0
11 38 -104 -39 0
11 -39 -90 0
11 -39 40 0
11 39 -40 90 0
11 40 89 0
11 40 -55 0
11 -40 55 -89 0
11 41 -29 0
11 41 -42 0
11 -41 42 29 0
11 42 -31 0
11 42 -43 0
11 -42 43 31 0
11 -43 32 0
11 -43 109 0
11 43 -109 -32 0
11 44 -16 0
11 44 -25 0
11 -44 25 16 0
1 44 0
11 45 -27 0
11 45 -46 0
11 -45 46 27 0
1 45 0
11 46 -47 0
11 46 -48 0
11 -46 48 47 0
11 -47 39 0
11 -47 106 0
11 47 -106 -39 0
11 48 -31 0
11 48 -49 0
11 -48 49 31 0
11 -49 50 0
11 -49 109 0
11 49 -109 -50 0
11 -50 -84 0
11 -50 51 0
11 50 -51 84 0
11 51 83 0
11 51 -55 0
11 -51 55 -83 0
11 52 -41 0
11 52 -53 0
11 -52 53 41 0
1 52 0
11 -53 32 0
11 -53 104 0
11 53 -104 -32 0
11 -54 0
11 57 104 0
11 57 -58 0
11 -57 58 -104 0
11 57 0
11 -58 -83 0
11 -58 -84 0
11 58 84 83 0
11 59 106 0
11 59 -60 0
11 -59 60 -106 0
11 59 0
11 -60 -83 0
11 -60 61 0
11 60 -61 83 0
11 -61 -84 0
11 -61 62 0
11 61 -62 84 0
11 -62 -85 0
11 -62 -86 0
11 62 86 85 0
11 63 -60 0
11 63 108 0
11 -63 -108 60 0
11 63 0
11 64 104 0
11 64 -65 0
11 -64 65 -104 0
11 64 0
11 -65 66 0
11 -65 69 0
11 65 -69 -66 0
11 66 -67 0
11 66 -68 0
11 -66 68 67 0
11 -67 -86 0
11 -67 85 0
11 67 -85 86 0
11 -68 -85 0
11 -68 86 0
11 68 -86 85 0
11 -69 70 0
11 -69 73 0
11 69 -73 -70 0
11 70 -71 0
11 70 -72 0
11 -70 72 71 0
11 -71 -88 0
11 -71 87 0
11 71 -87 88 0
11 -72 -87 0
11 -72 88 0
11 72 -88 87 0
11 73 -74 0
11 73 -75 0
11 -73 75 74 0
11 -74 -90 0
11 -74 89 0
11 74 -89 90 0
11 -75 -89 0
11 -75 90 0
11 75 -90 89 0
11 76 106 0
11 76 -69 0
11 -76 69 -106 0
11 76 0
11 77 108 0
11 77 -69 0
11 -77 69 -108 0
11 77 0
11 78 109 0
11 78 -79 0
11 -78 79 -109 0
11 78 0
11 -79 65 0
11 -79 80 0
11 79 -80 -65 0
11 80 -81 0
11 80 -82 0
11 -80 82 81 0
11 -81 -84 0
11 -81 83 0
11 81 -83 84 0
11 -82 -83 0
11 -82 84 0
11 82 -84 83 0
11 91 -92 0
11 91 -95 0
11 -91 95 92 0
11 91 0
11 -92 -106 0
11 -92 93 0
11 92 -93 106 0
11 -93 -108 0
11 -93 94 0
11 93 -94 108 0
11 -94 -109 0
11 -94 104 0
11 94 -104 109 0
11 95 -96 0
11 95 -99 0
11 -95 99 96 0
11 -96 -104 0
11 -96 97 0
11 96 -97 104 0
11 -97 -108 0
11 -97 98 0
11 97 -98 108 0
11 -98 -109 0
11 -98 106 0
11 98 -106 109 0
11 99 -100 0
11 99 -103 0
11 -99 103 100 0
11 -100 -104 0
11 -100 101 0
11 100 -101 104 0
11 -101 -106 0
11 -101 102 0
11 101 -102 106 0
11 -102 -109 0
11 -102 108 0
11 102 -108 109 0
11 -103 -104 0
11 -103 105 0
11 103 -105 104 0
11 -105 -106 0
11 -105 107 0
11 105 -107 106 0
11 -107 -108 0
11 -107 109 0
11 107 -109 108 0
